p edge 28 112
e 1 3
e 1 6
e 1 23
e 1 27
e 2 11
e 2 19
e 2 21
e 2 25
e 3 6
e 3 6
e 3 11
e 3 12
e 4 3
e 4 7
e 4 25
e 4 26
e 5 1
e 5 8
e 5 11
e 5 17
e 6 4
e 6 13
e 6 18
e 6 27
e 7 5
e 7 12
e 7 27
e 7 27
e 8 5
e 8 12
e 8 17
e 8 22
e 9 1
e 9 10
e 9 10
e 9 18
e 10 2
e 10 17
e 10 24
e 10 27
e 11 15
e 11 16
e 11 17
e 11 26
e 12 8
e 12 9
e 12 20
e 12 20
e 13 1
e 13 3
e 13 14
e 13 22
e 14 16
e 14 17
e 14 22
e 14 27
e 15 12
e 15 14
e 15 16
e 15 23
e 16 3
e 16 4
e 16 15
e 16 28
e 17 16
e 17 18
e 17 20
e 17 25
e 18 3
e 18 11
e 18 19
e 18 22
e 19 1
e 19 3
e 19 5
e 19 15
e 20 2
e 20 4
e 20 14
e 20 17
e 21 13
e 21 18
e 21 19
e 21 23
e 22 7
e 22 9
e 22 14
e 22 27
e 23 2
e 23 17
e 23 24
e 23 28
e 24 2
e 24 11
e 24 16
e 24 27
e 25 8
e 25 10
e 25 26
e 25 27
e 26 2
e 26 8
e 26 10
e 26 21
e 27 9
e 27 17
e 27 19
e 27 19
e 28 7
e 28 20
e 28 20
e 28 24
